%chk=b3lyp3HPAyanggd3.chk
# opt freq b3lyp/6-31+g(d,p)

[No Title]

1 1
 N                 -1.34849900   -0.19621000   -0.00462900
 C                 -1.34403000   -1.50020600    0.01184900
 C                 -0.21336900   -2.21418500    0.00606400
 C                  0.93913200   -1.53508800   -0.00976100
 C                  0.96483700   -0.18889200   -0.01739600
 C                 -0.21788800    0.47811600   -0.03148900
 C                 -0.23665400    1.85060300    0.00333400
 O                 -1.27320000    2.47806200   -0.04716500
 O                  0.87180600    2.61942500    0.11450300
 O                  2.19269900    0.41080500   -0.03144300
 H                 -2.26282600    0.27574400    0.00190500
 H                 -2.31572600   -2.02393000    0.03039900
 H                 -0.23108600   -3.31585400    0.01824100
 H                  1.88753000   -2.09903100   -0.01066900
 H                  0.62646500    3.55565500    0.17003200
 H                  2.20059100    1.20652200   -0.58332400

