%chk=pbe3HPA.chk
# opt freq pbepbe/6-31+g(d,p)

[No Title]

0 1
 N                  0.44160200   -1.44344000   -0.00003700
 C                  1.76063900   -1.47676900   -0.00004400
 C                  2.54554300   -0.31394800   -0.00002100
 C                  1.92737800    0.91695300    0.00000100
 C                  0.52786800    0.96885100    0.00000000
 C                 -0.17193000   -0.25232200   -0.00001300
 C                 -1.64754600   -0.22441800    0.00003600
 O                 -2.29212500    0.82137700    0.00011900
 O                 -2.24533300   -1.41043500   -0.00002700
 O                 -0.06686700    2.16655500   -0.00001200
 H                  2.22349700   -2.45915700   -0.00006300
 H                  3.62765300   -0.38998100   -0.00002700
 H                  2.48363600    1.84751100    0.00001000
 H                 -3.20227400   -1.24591500    0.00000900
 H                 -1.04082900    2.02155700   -0.00007000

