%chk=B2PLYPD3BJTHAP.chk
# opt freq B2PLYP/6-31+g(d,p) EmpiricalDispersion=GD3BJ

[No Title]

0 1
 C                 -1.52927800    1.24717500    0.00005900
 C                 -2.26011400    0.05263100    0.00003500
 C                 -1.62211600   -1.18032700   -0.00002400
 C                 -0.22481000   -1.22934200   -0.00006100
 C                  0.56717900   -0.03309400   -0.00003200
 C                 -0.14383400    1.19776400    0.00002900
 O                  0.57233300    2.35362700    0.00005700
 C                  2.02366000   -0.16436800   -0.00005500
 C                  2.95347200    1.01873100    0.00002100
 O                  2.54325500   -1.30079000   -0.00000300
 O                  0.34613700   -2.42788300   -0.00012600
 O                 -3.60986900    0.17257000    0.00007000
 H                 -2.06092900    2.19408700    0.00010200
 H                 -2.17347900   -2.11563100   -0.00004600
 H                 -0.03667500    3.10186300    0.00012100
 H                  2.78451800    1.65075700    0.87612100
 H                  3.97609800    0.63933100    0.00005200
 H                  2.78458900    1.65080600   -0.87605500
 H                  1.34178700   -2.25356400   -0.00016400
 H                 -4.01571600   -0.70286800    0.00004600

