%chk=b3lypTHAP.chk
# opt freq b3lyp/6-31+g(d,p) em=gd3bj

[No Title]

0 1
 C                 -1.82584200   -0.03104500    0.00083300
 C                 -1.85211400   -1.36671000    0.00113400
 C                 -0.65910800   -1.96835300    0.00115500
 C                  0.51401300   -1.30798300    0.00116500
 C                  0.51722900    0.05527000    0.00078000
 C                 -0.68695500    0.68372600    0.00067600
 O                 -0.86554800    2.03037100    0.00026500
 C                  1.70532200    0.74790700    0.00065700
 C                  1.92485500    2.26542200    0.00051900
 O                  2.78297200    0.18987200    0.00067200
 O                  1.60667900   -2.13156600    0.00097600
 O                 -3.01292500   -2.07401300    0.00105200
 H                 -2.79432900    0.49842000    0.00064500
 H                 -0.64990600   -3.07255200    0.00118300
 H                 -1.81038500    2.25201700   -0.00008700
 H                  1.06518400    2.95215900    0.00207600
 H                  2.52209300    2.54631900    0.89900000
 H                  2.51981300    2.54654800   -0.89939700
 H                  2.47790000   -1.72334800   -0.00340300
 H                 -2.80728100   -3.02283500   -0.00014200

