%chk=B3PW91D3FAyang.chk
# opt freq b3pw91/6-31+g(d,p) EmpiricalDispersion=GD3

[No Title]

1 1
 C                  1.47535800   -2.02796800   -0.02225800
 C                  2.51504900   -1.08564800   -0.01125500
 C                  2.22907500    0.30991800    0.00468600
 C                  0.91936000    0.73357400    0.01093000
 C                 -0.14634600   -0.21492600    0.00222500
 C                  0.16663900   -1.60023500   -0.01701000
 O                  3.77213900   -1.50433600   -0.01718100
 C                 -1.47346000    0.27253200    0.00956600
 C                 -2.64626000   -0.47068100    0.01651200
 C                 -3.89481600    0.13684700   -0.00015800
 O                 -4.96297400   -0.63037900    0.10020000
 O                 -4.01246200    1.44792900   -0.12404000
 O                  3.34192900    1.07534700    0.01211600
 C                  3.20344100    2.49592100    0.02920800
 H                  1.73326000   -3.08143600   -0.03659600
 H                  0.68398400    1.79259800    0.02333300
 H                 -0.62549200   -2.34071200   -0.02826800
 H                  4.36973900   -0.73638600   -0.00878200
 H                 -1.58495400    1.35587100    0.00962000
 H                 -2.65751600   -1.55341500    0.03617500
 H                 -5.80289300   -0.19408100   -0.10601100
 H                 -4.88536900    1.79808100    0.10666800
 H                  4.21762300    2.89255500    0.03230700
 H                  2.67572000    2.84195200   -0.86592900
 H                  2.67860300    2.82047100    0.93404800

