%chk=camb3lypD3FA.chk
# opt freq cam-b3lyp/6-31+g(d,p) empiricaldispersion=gd3

[No Title]

0 1
 C                  1.47578500   -2.02390500   -0.09603100
 C                  2.50971900   -1.07968300   -0.03321200
 C                  2.19382200    0.30287100    0.01893200
 C                  0.86170300    0.71728000    0.00962600
 C                 -0.19207600   -0.23411800   -0.04879800
 C                  0.14229600   -1.60703700   -0.10428500
 O                  3.80840300   -1.49123300   -0.02700300
 C                 -1.56764600    0.25514300   -0.05189800
 C                 -2.71364500   -0.47600200    0.01672800
 O                  3.30373200    1.11680300    0.07598900
 C                  3.09187600    2.53082100    0.14192300
 C                 -4.08732500    0.07482100    0.05353700
 O                 -5.04707300   -0.57102400    0.45240500
 O                 -4.28189700    1.37254900   -0.36926300
 H                  1.73959500   -3.08372600   -0.14134300
 H                  0.61496500    1.78162400    0.05291400
 H                 -0.64660800   -2.36106400   -0.16148600
 H                  4.36960000   -0.68874300    0.02038000
 H                 -1.64870300    1.35289300   -0.08023400
 H                 -2.69028300   -1.56352100    0.12952800
 H                  4.09240400    2.98154400    0.18366300
 H                  2.55929400    2.89386700   -0.75591500
 H                  2.52379900    2.80415700    1.04969000
 H                 -3.46644600    1.70506700   -0.79336100

