%chk=pbePNA.chk
# opt freq pbepbe/6-31+g(d,p)

[No Title]

0 1
 C                 -0.02179600    1.21640500    0.00022800
 C                 -0.71133900    0.00000100    0.00039400
 C                 -0.02179700   -1.21640200    0.00029900
 C                  1.36325300   -1.21610400    0.00016200
 C                  2.08216800   -0.00000100    0.00005700
 C                  1.36325400    1.21610400    0.00009100
 N                  3.45149800    0.00000100   -0.00007100
 N                 -2.16390600    0.00000000    0.00061300
 O                 -2.74519600   -1.09160000   -0.00070100
 O                 -2.74520900    1.09159700   -0.00076800
 H                 -0.58094900    2.14355300    0.00027100
 H                 -0.58095400   -2.14355000    0.00039700
 H                  1.90326100   -2.15827200    0.00014400
 H                  1.90326400    2.15827000    0.00001800
 H                  3.97150400    0.86122700   -0.00015500
 H                  3.97150300   -0.86122600   -0.00010300

