%chk=B2PLYPD3BJ3HPA2.chk
# opt freq B2PLYP/6-31+g(d,p) EmpiricalDispersion=GD3BJ

[No Title]

1 1
 N                 -0.50626400   -1.35032700   -0.00004100
 C                 -1.83536700   -1.42015100   -0.00001900
 C                 -2.56482900   -0.22804100    0.00004500
 C                 -1.89785000    0.98128200    0.00008600
 C                 -0.48333900    1.02406500    0.00006100
 C                  0.20632200   -0.19613100   -0.00000500
 C                  1.67697000   -0.42243600   -0.00003700
 O                  2.15020800   -1.53255300   -0.00014600
 O                  2.36548500    0.72649900   -0.00001900
 O                  0.09017800    2.21546400    0.00009700
 H                  0.06857700   -2.19870800   -0.00008600
 H                 -2.28324000   -2.40674200   -0.00005300
 H                 -3.64835500   -0.26734300    0.00006400
 H                 -2.43580900    1.92465500    0.00013500
 H                  3.32207700    0.54278200   -0.00007400
 H                  1.06218400    2.15084700    0.00006800

