%chk=cam3HPA.chk
# opt freq cam-b3lyp/6-31+g(d,p) em=gd3bj

[No Title]

0 1
 N                 -0.44335600   -1.45162600    0.00001400
 C                 -1.76851700   -1.47707300    0.00001700
 C                 -2.55320800   -0.31039900    0.00001400
 C                 -1.93128400    0.92416000    0.00000000
 C                 -0.52709100    0.97516200   -0.00001300
 C                  0.17279600   -0.25659100    0.00000400
 C                  1.64819800   -0.22487700    0.00006400
 O                  2.29827800    0.82405000    0.00012400
 O                  2.24775900   -1.41878200   -0.00010400
 O                  0.07477800    2.17028400   -0.00007100
 H                 -2.23702800   -2.45797000    0.00002700
 H                 -3.63610100   -0.38371400    0.00002400
 H                 -2.48675800    1.85540000   -0.00000800
 H                  3.20293700   -1.23719700   -0.00009100
 H                  1.04855100    1.99815300   -0.00015500

