%chk=b3lyp3HPA.chk
# opt freq cam-b3lyp/6-31+g(d,p) em=gd3bj

[No Title]

1 1
 N                 -0.51193400   -1.35263600   -0.00020000
 C                 -1.84382500   -1.41699100   -0.00018700
 C                 -2.56767000   -0.22045200    0.00009100
 C                 -1.89588100    0.98750100    0.00025600
 C                 -0.47989500    1.02504800    0.00008400
 C                  0.20499200   -0.19844300   -0.00009300
 C                  1.67557900   -0.42702600    0.00007200
 O                  2.14902600   -1.53785600    0.00029400
 O                  2.36609800    0.72618200   -0.00012800
 O                  0.10221900    2.21460600   -0.00013500
 H                  0.06304600   -2.20041600   -0.00018300
 H                 -2.29600000   -2.40029900   -0.00036700
 H                 -3.65029300   -0.25515700    0.00019900
 H                 -2.42868900    1.93242900    0.00049700
 H                  3.32245500    0.53584300    0.00004500
 H                  1.07447500    2.13477600   -0.00036900

