%chk=pbe3HPAyanggd3.chk
# opt freq pbepbe/6-31+g(d,p) em=gd3bj

[No Title]

1 1
 N                 -0.51158600   -1.35540100   -0.00003200
 C                 -1.84464100   -1.42025400   -0.00011900
 C                 -2.57200800   -0.22419400    0.00001100
 C                 -1.90017900    0.98494300    0.00013500
 C                 -0.48311300    1.02318900    0.00013200
 C                  0.20698700   -0.19899700    0.00010200
 C                  1.68090500   -0.42564700    0.00004800
 O                  2.15784900   -1.53606200    0.00000700
 O                  2.37306800    0.72786800    0.00002500
 O                  0.09209800    2.21969000   -0.00018300
 H                  0.05708200   -2.20803900   -0.00007300
 H                 -2.29549600   -2.40503600   -0.00026200
 H                 -3.65524000   -0.26046900    0.00003000
 H                 -2.43451400    1.92984500    0.00020100
 H                  3.33170400    0.54452600   -0.00002500
 H                  1.06574000    2.16076600   -0.00029600

