%chk=b3lypPNAyang.chk
# opt freq b3lyp/6-31+g(d,p) em=gd3bj

[No Title]

1 1
 C                 -0.94322400    0.83627700   -0.00383300
 C                 -0.96756600   -0.51188000   -0.03628900
 C                  0.21772700   -1.15377000   -0.05131200
 C                  1.37815800   -0.47979900   -0.03458900
 C                  1.37747800    0.86086100   -0.00228100
 C                  0.21109500    1.52056600    0.01304100
 N                  2.47647800    1.49130700    0.01347700
 N                 -2.10677700   -1.15965800   -0.05221900
 O                 -2.19847600   -2.29074900   -0.08169400
 O                 -3.24876500   -0.50316700   -0.03534200
 H                 -1.87387600    1.42860700    0.01005000
 H                  0.27647000   -2.25497900   -0.07772200
 H                  2.32973100   -1.03879900   -0.04760000
 H                  0.19185000    2.62361800    0.03954900
 H                  2.47518800    2.54046400    0.03883300
 H                  3.38437100    0.96503500    0.00133600
 H                 -3.09335500   -2.70791500   -0.09246200

