%chk=B2PLYPD3BJFA.chk
# opt freq B2PLYP/6-31+g(d,p) EmpiricalDispersion=GD3BJ

[No Title]

0 1
 C                  1.46083700   -2.01376200   -0.00041900
 C                  2.49406400   -1.08065100   -0.00027700
 C                  2.18900300    0.29467000   -0.00007900
 C                  0.86662100    0.71269900   -0.00001800
 C                 -0.18631300   -0.22682800   -0.00015200
 C                  0.13646400   -1.59270700   -0.00035900
 O                  3.78084900   -1.49428000   -0.00033700
 C                 -1.55727500    0.27190300   -0.00007000
 C                 -2.69671400   -0.44862700    0.00012400
 O                  3.29154900    1.10182100    0.00003600
 C                  3.09948600    2.50660600    0.00039400
 C                 -4.07723800    0.07802400    0.00031700
 O                 -5.04130800   -0.65548400    0.00210100
 O                 -4.26980000    1.42358000   -0.00111800
 H                  1.71474000   -3.06888700   -0.00057900
 H                  0.63075700    1.77230100    0.00014600
 H                 -0.64960900   -2.34027900   -0.00048300
 H                  4.34900100   -0.70916900   -0.00020500
 H                 -1.61709300    1.36317300   -0.00003100
 H                 -2.67664600   -1.53361600    0.00043800
 H                  4.09677200    2.94732400    0.00051300
 H                  2.55815100    2.83029500   -0.89674100
 H                  2.55813500    2.82983400    0.89768500
 H                 -3.42813400    1.89596800   -0.00297400

