%chk=B3PWD3BJAnthranilic.chk
# opt freq b3pw91/6-31+g(d,p) EmpiricalDispersion=GD3BJ

[No Title]

0 1
 C                 -1.85969700   -1.51697300   -0.00000400
 C                 -2.58481300   -0.31510900    0.00005900
 C                 -1.93786800    0.90638400    0.00005800
 C                 -0.52584900    0.98760700   -0.00000800
 C                  0.21179900   -0.23213000   -0.00007500
 C                 -0.47763400   -1.46048200   -0.00006600
 C                  1.67474000   -0.20582700   -0.00014800
 O                  2.25067200   -1.43093300    0.00005500
 N                  0.08522000    2.19960400   -0.00001300
 O                  2.37545100    0.80256900    0.00007200
 H                 -2.37289700   -2.47295300   -0.00000200
 H                 -3.67157300   -0.33780200    0.00011000
 H                 -2.51344300    1.82888300    0.00010600
 H                  0.10644800   -2.37429400   -0.00011300
 H                  3.20723300   -1.27407700    0.00017600
 H                  1.09658500    2.23646700   -0.00010100
 H                 -0.46194700    3.04264200    0.00000200

