%chk=ccpvTZPNA.chk
# opt freq m062x/cc-pvtz

[No Title]

0 1
 C                 -0.02398700    1.21528400   -0.00005100
 C                 -0.70542700    0.00000000   -0.00002900
 C                 -0.02398700   -1.21528400    0.00001900
 C                  1.36027500   -1.21499400    0.00004600
 C                  2.07455300    0.00000000    0.00002400
 C                  1.36027500    1.21499400   -0.00002400
 N                  3.44183300    0.00000000    0.00005300
 N                 -2.16448500    0.00000000   -0.00006000
 O                 -2.73382200   -1.07759700    0.00004100
 O                 -2.73382200    1.07759700   -0.00003400
 H                 -0.58956400    2.14363000   -0.00008800
 H                 -0.58956400   -2.14363000    0.00003500
 H                  1.90532000   -2.15820500    0.00008400
 H                  1.90531900    2.15820500   -0.00004100
 H                  3.95900000    0.86238700    0.00001900
 H                  3.95900000   -0.86238700    0.00007200

