%chk=B3PW91D3PNAyang.chk
# opt freq b3pw91/6-31+g(d,p) EmpiricalDispersion=GD3

[No Title]

1 1
 C                 -0.05731800    1.26041900   -0.00002100
 C                  0.66741500    0.03633300   -0.00006800
 C                 -0.00650600   -1.21604800   -0.00004300
 C                 -1.37144600   -1.23715100   -0.00000400
 C                 -2.11785300   -0.01758400    0.00002500
 C                 -1.42088500    1.23142100    0.00001700
 N                 -3.45087500   -0.04389700    0.00006100
 N                  2.03076300    0.10709900   -0.00010900
 O                  2.66653800   -1.09534300    0.00005300
 O                  2.70408100    1.11458400    0.00002900
 H                  0.48219000    2.20135200   -0.00003100
 H                  0.55648500   -2.14169800   -0.00006600
 H                 -1.89792300   -2.18652400    0.00000200
 H                 -1.98382100    2.15968000    0.00003700
 H                 -3.99620400    0.80656300    0.00008200
 H                 -3.96283600   -0.91481500    0.00006700
 H                  3.61749600   -0.86524600    0.00014800

