%chk=B3PW91SA.chk
# opt freq b3pw91/6-31+g(d,p)

[No Title]

0 1
 C                  2.27428000   -0.11997000    0.00083500
 C                  1.69266600    1.16946300    0.00032000
 C                  0.31597100    1.33475000    0.00004100
 C                 -0.52777300    0.21133400    0.00023800
 C                  0.04074500   -1.05589000    0.00057900
 C                  1.42648200   -1.23654300    0.00069800
 O                  3.63770200   -0.11665800    0.00108700
 O                  2.58975200    2.18460700    0.00024400
 C                  2.08250500    3.50294800   -0.00023500
 O                  1.78800300   -2.55962100    0.00058800
 C                  3.12727500   -2.99866900   -0.00147800
 C                 -1.97573100    0.43041400   -0.00003700
 C                 -2.93936200   -0.50262000   -0.00017600
 C                 -4.35173800   -0.07824700   -0.00048100
 O                 -5.19244600   -1.13621300   -0.00086200
 O                 -4.75701000    1.06341000   -0.00084000
 H                 -0.12093900    2.32602500   -0.00027600
 H                 -0.56527500   -1.95489000    0.00057500
 H                  3.99813100   -1.00465900    0.00467800
 H                  2.95366700    4.15672100   -0.00023600
 H                  1.47994300    3.69527700   -0.89599400
 H                  1.47956100    3.69578500    0.89515800
 H                  3.07937400   -4.08754900   -0.00289100
 H                  3.65997600   -2.68433200   -0.90872300
 H                  3.66187000   -2.68707800    0.90565700
 H                 -2.30612300    1.46905200   -0.00017300
 H                 -2.74625600   -1.56972600   -0.00009000
 H                 -6.09385900   -0.78064500   -0.00124200

