%chk=lwm062xSA.chk
# opt freq m062x/6-31+g(d,p)

[No Title]

0 1
 C                  2.26980500   -0.11632500    0.00018700
 C                  1.69017900    1.17006200    0.00022000
 C                  0.31501900    1.33155400    0.00022700
 C                 -0.52746200    0.21022500    0.00018700
 C                  0.04213000   -1.05533300    0.00012300
 C                  1.42504100   -1.23239700    0.00002300
 O                  3.63446500   -0.12437900    0.00001400
 O                  2.58289400    2.18975100    0.00026800
 C                  2.08306000    3.51223400    0.00026400
 O                  1.79257700   -2.55515000   -0.00027100
 C                  3.12999800   -3.00370600   -0.00034500
 C                 -1.97228000    0.43013300    0.00019900
 C                 -2.93891900   -0.49717100   -0.00033800
 C                 -4.34731200   -0.08051400   -0.00022900
 O                 -5.18613400   -1.14228500   -0.00098300
 O                 -4.76324200    1.05994200    0.00040400
 H                 -0.12226300    2.32118400    0.00029300
 H                 -0.56347800   -1.95310100    0.00007500
 H                  3.98294800   -1.01784300    0.00234900
 H                  2.95828800    4.16061300    0.00028400
 H                  1.48251300    3.71140500   -0.89467100
 H                  1.48247900    3.71140000    0.89517800
 H                  3.07513900   -4.09226600   -0.00071400
 H                  3.66784800   -2.69705600   -0.90672500
 H                  3.66764900   -2.69779900    0.90644600
 H                 -2.29753400    1.46864900    0.00067500
 H                 -2.74458600   -1.56313500   -0.00088600
 H                 -6.08903100   -0.78765800   -0.00087100

