%chk=m062x6311FA.chk
# opt freq m062x/6-311+g(d,p)

[No Title]

0 1
 C                  1.45813500   -2.01669100    0.00005500
 C                  2.49299700   -1.08321900   -0.00003000
 C                  2.19067300    0.29321200   -0.00010500
 C                  0.86799400    0.71503900   -0.00009500
 C                 -0.18643500   -0.22454600   -0.00000500
 C                  0.13300700   -1.59287900    0.00007000
 O                  3.78405600   -1.50187600   -0.00004000
 C                 -1.55836100    0.27498000   -0.00000900
 C                 -2.69545100   -0.44988200    0.00001300
 O                  3.29712300    1.10374700   -0.00022000
 C                  3.10034600    2.51438500    0.00028500
 C                 -4.07769100    0.07480000    0.00002900
 O                 -5.04430000   -0.65797700    0.00012800
 O                 -4.27237600    1.42677200   -0.00014500
 H                  1.71117000   -3.07124100    0.00012300
 H                  0.63252700    1.77323900   -0.00016900
 H                 -0.65540900   -2.33657000    0.00014700
 H                  4.35790500   -0.71924400   -0.00006600
 H                 -1.62007400    1.36480900   -0.00002600
 H                 -2.67079900   -1.53386700    0.00004700
 H                  4.09656000    2.95611200    0.00046300
 H                  2.55630300    2.83322400   -0.89647300
 H                  2.55625300    2.83256700    0.89724300
 H                 -3.43173600    1.90445500   -0.00032200

