%chk=b3lypAnthranilic.chk
# opt freq b3lyp/6-31+g(d,p)

[No Title]

0 1
 C                 -2.01818500    0.46687100   -0.00092500
 C                 -2.04512300   -0.87175600    0.00009200
 C                 -0.88855400   -1.54880500    0.00050600
 C                  0.29369600   -0.90488200    0.00004400
 C                  0.33408500    0.44671800   -0.00082300
 C                 -0.84093100    1.11039400   -0.00141300
 C                  1.48485600    1.18758400   -0.00115900
 O                  1.45999100    2.54666400   -0.00247700
 N                  1.30948100   -1.66504500    0.00040100
 O                  2.60871800    0.73332600   -0.00015400
 H                 -2.96394700    1.03488800   -0.00130300
 H                 -3.00835500   -1.40877400    0.00052800
 H                 -0.93601400   -2.65224500    0.00122500
 H                 -0.88979200    2.21237300   -0.00218200
 H                  2.37592300    2.86790800   -0.00200100
 H                  2.29127800   -1.30555000   -0.00001200
 H                  1.18471000   -2.70710800    0.00100900

