%chk=b3lypAnthranilicyang.chk
# opt freq b3lyp/6-31+g(d,p)

[No Title]

1 1
 C                 -2.15784900    0.55835500    0.00098100
 C                 -2.13315300   -0.78212900    0.00161100
 C                 -0.95671100   -1.42628500    0.00320600
 C                  0.20314600   -0.74680000    0.00422200
 C                  0.17554500    0.60877300    0.00548400
 C                 -1.00766400    1.24967400    0.00258100
 C                  1.33298900    1.33461100    0.00595400
 O                  1.42109700    2.68337600   -0.00721600
 N                  1.42504500   -1.53418000   -0.00677800
 O                  2.34547400    0.67502300    0.01261300
 H                 -3.12402000    1.09057900   -0.00086000
 H                 -3.07718000   -1.35238500    0.00041200
 H                 -0.94851100   -2.52930400    0.00334300
 H                 -1.06575100    2.35110400    0.00185300
 H                  2.35877600    2.93328400   -0.00277100
 H                  1.18119800   -2.55027000   -0.01758600
 H                  1.98205200   -1.31117700   -0.86242100
 H                  1.98542200   -1.33026100    0.85141500

