%chk=lwcamDHBYang.chk
# opt freq cam-b3lyp/6-31+g(d,p) em=gd3bj

[No Title]

1 1
 C                 -0.32464200    1.28857700   -0.00007700
 C                 -0.50826800   -0.11996500   -0.00004200
 C                  0.61669800   -0.95092000   -0.00000200
 C                  1.85867300   -0.35683900    0.00023800
 C                  2.09729300    1.00588400    0.00020300
 C                  0.97950900    1.82673200    0.00014400
 O                  3.07268200   -1.23166500   -0.00014400
 C                 -1.87251000   -0.73725400    0.00005800
 O                 -1.79005900   -2.09162600   -0.00019600
 O                 -2.91487800   -0.13263700    0.00039700
 O                 -1.40167000    2.07344800   -0.00041500
 H                  0.47493100   -2.02537800    0.00013100
 H                  3.10163900    1.41278200    0.00024700
 H                  1.11141600    2.90412600    0.00025300
 H                  3.17917500   -1.77639700    0.80487300
 H                  3.17885200   -1.77592100   -0.80552400
 H                 -2.70312600   -2.42602300   -0.00004900
 H                 -1.15200600    3.00936400   -0.00019800

