%chk=pbeDHBgd3.chk
# opt freq pbepbe/6-31+g(d,p) em=gd3bj

[No Title]

0 1
 C                  0.23225600    1.27551300    0.00004800
 C                  0.46872800   -0.11916100    0.00007200
 C                 -0.62883700   -0.99743300    0.00004500
 C                 -1.93638100   -0.52239300   -0.00002100
 C                 -2.16621500    0.85655500   -0.00005500
 C                 -1.08898600    1.73975400   -0.00000100
 O                 -2.94928400   -1.45108500   -0.00011300
 C                  1.84921100   -0.67239000    0.00011700
 O                  1.85784800   -2.03932900    0.00013500
 O                  2.88489700   -0.03943500   -0.00030800
 O                  1.28179000    2.14263700    0.00009500
 H                 -0.45721900   -2.06615800    0.00007800
 H                 -3.18135500    1.24702100   -0.00012800
 H                 -1.27569100    2.81118700   -0.00001500
 H                 -3.80738300   -1.00815500    0.00031200
 H                  2.79373200   -2.29838300   -0.00007200
 H                  0.94725200    3.04950600    0.00010900

