%chk=b3lypFAgd3.chk
# opt freq b3lyp/6-31+g(d,p)

[No Title]

0 1
 C                 -2.43508400    0.40681000    0.00023800
 C                 -2.37405100   -0.93342300    0.00014700
 C                 -1.17188100   -1.54515000    0.00013000
 C                 -0.07388100   -0.76103700    0.00032600
 C                 -0.10912900    0.58807800    0.00041300
 C                 -1.32664400    1.15968000    0.00034100
 O                 -3.51442100   -1.67759700    0.00004100
 C                  1.05037100    1.28193900    0.00059500
 C                  1.20627000    2.61868900    0.00043500
 C                  2.42541300    3.22596900    0.00072900
 O                  2.51636900    4.43529200    0.00046000
 O                  3.59434700    2.54161000    0.00133500
 O                 -1.16344700   -2.92061700    0.00001000
 C                  0.06660600   -3.60607200    0.00046600
 H                 -3.42404100    0.89637300    0.00022800
 H                  0.91314700   -1.25008500    0.00037200
 H                 -1.47086300    2.25078300    0.00043000
 H                 -3.27707500   -2.61919600   -0.00006900
 H                  1.98399500    0.69104400    0.00087600
 H                  0.33575900    3.29355200    0.00002500
 H                  4.32117400    3.18503500    0.00143400
 H                 -0.15372500   -4.69720500    0.00040500
 H                  0.64196000   -3.36953600   -0.92221100
 H                  0.64126400   -3.36946500    0.92355700

