%chk=b3lypFAyanggd3.chk
# opt freq b3lyp/6-31+g(d,p)

[No Title]

1 1
 C                 -2.55336100    0.22479200   -0.03626700
 C                 -2.50118700   -1.11500200    0.01044800
 C                 -1.30316800   -1.73347000    0.04937200
 C                 -0.20018200   -0.95654000    0.02404800
 C                 -0.22630600    0.39228200   -0.02105600
 C                 -1.44035200    0.97060800   -0.04947900
 O                 -3.64711400   -1.85058800    0.01808000
 C                  0.93734900    1.07943100   -0.03555600
 C                  1.10369800    2.41439900   -0.07696200
 C                  2.30745200    3.01501500   -0.08735500
 O                  2.38441200    4.23295100   -0.09675300
 O                  3.51026800    2.37378500   -0.05523800
 O                 -1.30442600   -3.10853600    0.08916200
 C                 -0.08564300   -3.80434200   -0.02635900
 H                 -3.53908400    0.72002400   -0.06546800
 H                  0.78337200   -1.45214200    0.04623200
 H                 -1.57884800    2.06171600   -0.08811200
 H                 -3.41869600   -2.79417400    0.03842200
 H                  1.86665900    0.48244400   -0.01051100
 H                  0.23064100    3.08513100   -0.10554800
 H                  3.32028900    4.55053500   -0.15056300
 H                  4.09746100    2.81343300    0.58036000
 H                 -0.31604700   -4.89336900   -0.02360400
 H                  0.41135100   -3.55592300   -0.99056200
 H                  0.56847700   -3.58930300    0.84773200

