%chk=ccpvTZ3HPA2.chk
# opt freq m062x/cc-pvtz

[No Title]

1 1
 N                 -0.50491000   -1.34741200   -0.00005800
 C                 -1.83066900   -1.42166500   -0.00001700
 C                 -2.56394900   -0.23076700    0.00006500
 C                 -1.89864900    0.97786900    0.00009900
 C                 -0.48461500    1.02138800    0.00005400
 C                  0.20370200   -0.19318600   -0.00002600
 C                  1.68111900   -0.42129100   -0.00009100
 O                  2.14519000   -1.52702200   -0.00011600
 O                  2.37230400    0.72284500   -0.00000400
 O                  0.08358800    2.21769900    0.00009100
 H                  0.06984100   -2.19690400   -0.00012300
 H                 -2.27650100   -2.41298200   -0.00005300
 H                 -3.65054900   -0.27345700    0.00010000
 H                 -2.43668400    1.92568300    0.00016300
 H                  3.32535000    0.52690100   -0.00001000
 H                  1.05262100    2.16037700    0.00005700

