%chk=pvdz3HPA2.chk
# opt freq m062x/aug-cc-pvdz

[No Title]

1 1
 N                  0.50673100   -1.34952800    0.00015400
 C                  1.83325700   -1.41997700   -0.00004300
 C                  2.56340800   -0.22743000   -0.00022600
 C                  1.89560300    0.97863800   -0.00018400
 C                  0.48100400    1.02117900    0.00003700
 C                 -0.20371200   -0.19495300    0.00021000
 C                 -1.68028300   -0.42234200    0.00047700
 O                 -2.14634500   -1.52888900   -0.00005700
 O                 -2.36720500    0.72173500   -0.00022900
 O                 -0.08548600    2.21606300    0.00006100
 H                 -0.06455200   -2.20101300    0.00030900
 H                  2.28022400   -2.40665500   -0.00004800
 H                  3.64613700   -0.26704900   -0.00039300
 H                  2.42862900    1.92471000   -0.00032200
 H                 -3.32441800    0.54041400   -0.00066300
 H                 -1.05651700    2.17433000    0.00022600

