%chk=b3lypTHAPyang.chk
# opt freq cam-b3lyp/6-31+g(d,p)

[No Title]

1 1
 C                 -1.55073000   -1.26692800   -0.00027400
 C                 -2.28677300   -0.07618200   -0.00033800
 C                 -1.63748300    1.17496000    0.00027600
 C                 -0.26057200    1.21204900    0.00054200
 C                  0.55916200    0.02433400    0.00049800
 C                 -0.16712000   -1.22625800    0.00052800
 O                  0.55548000   -2.35893800    0.00127100
 C                  1.98387300    0.08227100   -0.00032400
 C                  2.91716800   -1.08061800   -0.00103600
 O                  2.63003400    1.21802000   -0.00032600
 O                  0.40225600    2.40292900    0.00037800
 O                 -3.61621800   -0.19871100   -0.00085200
 H                 -2.08465300   -2.21143600   -0.00050500
 H                 -2.21322100    2.09613700    0.00006600
 H                 -0.01678300   -3.14150100    0.00046000
 H                  2.74814100   -1.71364000    0.87466300
 H                  2.74642100   -1.71386000   -0.87625600
 H                  3.94004400   -0.70499300   -0.00212500
 H                  2.02613300    1.99536500    0.00028400
 H                 -0.18917300    3.17053000    0.00103300
 H                 -4.07448800    0.65522700   -0.00061700

