%chk=camb3lypTHAPgd3.chk
# opt freq cam-b3lyp/6-31+g(d,p)

[No Title]

0 1
 C                 -1.53020400   -1.25088100    0.00001100
 C                 -2.26422200   -0.05642200   -0.00014800
 C                 -1.62757500    1.17922600   -0.00005300
 C                 -0.22857000    1.23091700    0.00019000
 C                  0.56913100    0.03567400    0.00025300
 C                 -0.14285700   -1.19791000    0.00025100
 O                  0.57742500   -2.35910900    0.00054700
 C                  2.03116300    0.16689300   -0.00011000
 C                  2.96442200   -1.02109000   -0.00066800
 O                  2.55253600    1.30405200    0.00002300
 O                  0.33578300    2.44040500    0.00028400
 O                 -3.62005600   -0.17952300   -0.00043400
 H                 -2.05847100   -2.19925900    0.00010000
 H                 -2.18132200    2.11271600   -0.00022300
 H                 -0.02934100   -3.11155600    0.00050600
 H                  2.79566800   -1.65328100   -0.87679600
 H                  3.98682700   -0.64097200   -0.00099600
 H                  2.79624900   -1.65326900    0.87560400
 H                  1.32960300    2.28555600    0.00017700
 H                 -4.03244900    0.69503000   -0.00008600

