%chk=WB97XDTHAP.chk
# opt freq wb97xd/6-31+g(d,p)

[No Title]

0 1
 C                 -1.52736100   -1.25048600   -0.00002900
 C                 -2.26120400   -0.05687000   -0.00006600
 C                 -1.62616400    1.17895300    0.00008900
 C                 -0.22824500    1.23122700    0.00011500
 C                  0.56842900    0.03681200    0.00013600
 C                 -0.14091100   -1.19646700    0.00008800
 O                  0.57987000   -2.35647200    0.00019000
 C                  2.02780000    0.16722700    0.00003000
 C                  2.95483900   -1.02296000   -0.00005200
 O                  2.55130200    1.30329800   -0.00026500
 O                  0.33719900    2.43939100    0.00012500
 O                 -3.61643300   -0.18009400   -0.00008800
 H                 -2.05507100   -2.19868100    0.00012700
 H                 -2.18058800    2.11153800    0.00016600
 H                 -0.02726600   -3.10829200   -0.00080600
 H                  2.78063500   -1.65352300   -0.87589200
 H                  3.97880700   -0.64802400   -0.00032400
 H                  2.78120800   -1.65351300    0.87589900
 H                  1.33103400    2.28190900    0.00001900
 H                 -4.02736300    0.69499000   -0.00075400

