%chk=lwcamSAYang.chk
# opt freq cam-b3lyp/6-31+g(d,p) em=gd3bj

[No Title]

1 1
 C                 -2.39902500   -0.20489400    0.00012600
 C                 -1.93084600    1.13405100    0.00697300
 C                 -0.56411200    1.35458200    0.00902200
 C                  0.35705600    0.26948700    0.00438300
 C                 -0.12561500   -1.06945400   -0.00381900
 C                 -1.48341000   -1.29423500   -0.00526800
 O                 -3.70517900   -0.43054000   -0.00199200
 O                 -2.89488300    2.07048400    0.01076900
 C                 -2.49858800    3.44207700    0.01541800
 O                 -2.11632000   -2.49343200   -0.01245800
 C                 -1.32380100   -3.68404400   -0.01894000
 C                  1.73331500    0.57743500    0.00867500
 C                  2.79843800   -0.31742900    0.01365200
 C                  4.11421800    0.11677700   -0.00085800
 O                  5.08043600   -0.78259700    0.10818700
 O                  4.40703200    1.40536200   -0.13046500
 H                 -0.17657900    2.36523400    0.01418900
 H                  0.56503800   -1.90094200   -0.00971600
 H                 -3.84859500   -1.39462100   -0.00725900
 H                 -3.42412600    4.01512900    0.01651500
 H                 -1.91773700    3.68011300    0.91381000
 H                 -1.91629900    3.68579900   -0.88050600
 H                 -2.03000100   -4.51237700   -0.02416100
 H                 -0.69809800   -3.72559600   -0.91670200
 H                 -0.69913800   -3.73601000    0.87900000
 H                  1.98708600    1.63468000    0.00786000
 H                  2.66146500   -1.39043900    0.02977400
 H                  5.95669400   -0.45311400   -0.14617800
 H                  5.30582300    1.63181300    0.15486000

