%chk=b3lypDHByanggd3.chk
# opt freq b3lyp/6-31+g(d,p)

[No Title]

1 1
 C                  0.47372700   -1.04461800    0.08849200
 C                  0.48473100    0.30578700    0.04103300
 C                 -0.69766800    0.95223100    0.02349000
 C                 -1.88195900    0.31611700    0.02927800
 C                 -1.86684400   -1.02510900    0.03426200
 C                 -0.70426100   -1.68998100    0.05921300
 O                 -3.05576100    1.00326800   -0.00589300
 C                  1.63430500    1.01539900    0.00041700
 O                  1.70566200    2.37895900   -0.01614400
 O                  2.74462000    0.50809500   -0.06919200
 O                  1.62322800   -1.76600000    0.10060300
 H                 -0.74118100    2.05377900   -0.01125100
 H                 -2.81823800   -1.58224500    0.01646300
 H                 -0.71498800   -2.79313600    0.06135200
 H                 -3.79746500    0.38171600   -0.08274400
 H                  2.39621000    2.67042000    0.60045900
 H                  3.45606100    1.18987000   -0.16812800
 H                  1.50602300   -2.66733100   -0.23770300

