%chk=B3PW91DHByanggd3.chk
# opt freq b3pw91/6-31+g(d,p)

[No Title]

1 1
 C                 -0.21821200    1.28146700    0.00000500
 C                 -0.42776000   -0.14117400    0.00000400
 C                  0.69501300   -1.02172300   -0.00001000
 C                  1.99147500   -0.51898900   -0.00001500
 C                  2.18591000    0.88747300   -0.00001200
 C                  1.10374400    1.76319800    0.00000000
 O                  3.01208100   -1.41398300   -0.00003600
 C                 -1.73072000   -0.72072700    0.00002400
 O                 -1.81475200   -2.04197700    0.00005500
 O                 -2.80232900    0.04481800   -0.00003700
 O                 -1.28620900    2.10480200    0.00001200
 H                  0.54571600   -2.10228700   -0.00001400
 H                  3.20160500    1.29751800   -0.00002200
 H                  1.28116100    2.84327300    0.00000000
 H                  3.87699900   -0.96185100    0.00001800
 H                 -2.72734500   -2.39851500   -0.00002700
 H                 -3.65375500   -0.44216200    0.00008700
 H                 -0.99140400    3.03760400    0.00002700

