%chk=lwm062xDHB.chk
# opt freq m062x/6-31+g(d,p)

[No Title]

0 1
 C                  0.23182100    1.26854600    0.00004500
 C                  0.46364800   -0.11790700    0.00005000
 C                 -0.62656700   -0.99347600    0.00002600
 C                 -1.92784100   -0.51945700   -0.00002400
 C                 -2.15552700    0.85312600   -0.00004400
 C                 -1.08276700    1.73285700    0.00001000
 O                 -2.93834600   -1.44224100   -0.00011500
 C                  1.84098100   -0.67091300    0.00007400
 O                  1.84970600   -2.02787800    0.00016200
 O                  2.87125700   -0.04028300   -0.00029600
 O                  1.27884800    2.12974400    0.00009300
 H                 -0.45475400   -2.06165500    0.00004800
 H                 -3.17002300    1.24271700   -0.00010700
 H                 -1.26785500    2.80353900    0.00000800
 H                 -3.79590100   -1.00248800    0.00035900
 H                  2.78294500   -2.29048300   -0.00000400
 H                  0.95137900    3.03697200    0.00012000

