%chk=lwm062DHBYang.chk
# opt freq m062x/6-31+g(d,p) 

[No Title]

1 1
 C                  0.32010400    1.28432600   -0.00004300
 C                  0.50550600   -0.11686100   -0.00003700
 C                 -0.61301900   -0.94823500    0.00000700
 C                 -1.85489000   -0.36206600    0.00003500
 C                 -2.09133000    0.99821100    0.00002600
 C                 -0.98024700    1.81971100   -0.00000700
 O                 -3.05286000   -1.23198800    0.00006000
 C                  1.86833600   -0.73264900   -0.00009500
 O                  1.79128600   -2.08145600    0.00024700
 O                  2.90733700   -0.13166900   -0.00020400
 O                  1.39239400    2.06982200   -0.00006800
 H                 -0.46999500   -2.02307300    0.00002200
 H                 -3.09633800    1.40436700    0.00004900
 H                 -1.11290900    2.89664300   -0.00000400
 H                 -3.20461000   -1.75520000   -0.81099800
 H                 -3.20458800   -1.75519700    0.81112400
 H                  2.69898000   -2.42778000    0.00027800
 H                  1.15743700    3.00795500   -0.00006700

