%chk=b3lypDMANgd3.chk
# opt freq b3lyp/6-31+g(d,p)

[No Title]

0 1
 C                 -2.00872200   -0.94299100   -1.14338200
 C                 -1.87763700   -2.26090700   -1.33498500
 C                 -0.91286900   -2.90422100   -0.67340400
 C                  0.01145800   -2.19990700    0.00012400
 C                  0.00439600   -0.84427000    0.00004900
 C                 -1.15482100   -0.22708100   -0.37654300
 C                  0.94306000   -2.89447900    0.67372300
 C                  1.90108700   -2.24108500    1.33524400
 C                  2.01843500   -0.92188800    1.14349200
 C                  1.15712200   -0.21500100    0.37656600
 N                 -1.49625700    0.97051100   -0.05041100
 N                  1.48606900    0.98604900    0.05030600
 C                 -0.92795700    1.59130800    1.18902400
 C                 -2.68540600    1.63347300   -0.65120100
 C                  2.66825800    1.66142300    0.65101100
 C                  0.91132900    1.60075600   -1.18920100
 H                 -2.93659900   -0.53514900   -1.57306400
 H                 -2.62943000   -2.82849400   -1.90956700
 H                 -0.88955300   -4.00648500   -0.72014100
 H                  0.93123400   -3.99692300    0.72058500
 H                  2.65873900   -2.80073900    1.90988400
 H                  2.94200600   -0.50436200    1.57312600
 H                 -0.40239500    0.89001100    1.87087600
 H                 -0.33001500    2.50788600    1.00548200
 H                 -1.78346800    1.93783000    1.81321000
 H                 -2.64503700    1.63651900   -1.76411500
 H                 -3.63666400    1.19818400   -0.26861500
 H                 -2.69292400    2.71039200   -0.36795200
 H                  2.62786200    1.66417300    1.76392200
 H                  3.62398800    1.23601200    0.26846800
 H                  2.66456200    2.73832600    0.36763600
 H                  0.39310500    0.89395200   -1.87097200
 H                  0.30386900    2.51107100   -1.00575400
 H                  1.76317800    1.95610900   -1.81342100

