%chk=camb3lypDMANyanggd3.chk
# opt freq cam-b3lyp/6-31+g(d,p)

[No Title]

1 1
 C                  0.75410600    2.44287000   -0.00017000
 C                  2.16587600    2.40539000   -0.00016300
 C                  2.81410400    1.19210800   -0.00003900
 C                  2.09146300   -0.03141400    0.00005500
 C                  0.65067600   -0.01535700    0.00004000
 C                  0.02879600    1.27310600   -0.00007800
 C                  2.78090800   -1.27337800    0.00011800
 C                  2.09181200   -2.46323700    0.00020000
 C                  0.67908500   -2.45720100    0.00015100
 C                 -0.03422000   -1.27605600    0.00017900
 N                 -1.45355700    1.33428700    0.00004500
 N                 -1.49880500   -1.28851200   -0.00017300
 C                 -2.01916600    1.95504400    1.24123300
 C                 -2.01941600    1.95559300   -1.24077400
 C                 -2.06618500   -1.90733600   -1.22367000
 C                 -2.06694200   -1.90708800    1.22313900
 H                  0.24950700    3.40417100   -0.00032600
 H                  2.72646600    3.33379300   -0.00023900
 H                  3.89912800    1.15208800   -0.00000900
 H                  3.86655900   -1.26519400    0.00018700
 H                  2.62358600   -3.40888600    0.00019900
 H                  0.14854900   -3.40434000    0.00014000
 H                 -1.71405200    0.25631200   -0.00021300
 H                 -3.10466200    1.83872900    1.22724200
 H                 -1.59926600    1.44929700    2.11084100
 H                 -1.76487900    3.01530300    1.27850700
 H                 -3.10491700    1.83938300   -1.22654200
 H                 -1.59978800    1.45011900   -2.11067300
 H                 -1.76502300    3.01583800   -1.27773400
 H                 -1.63835700   -1.43202200   -2.10908600
 H                 -1.86008800   -2.98356000   -1.27343200
 H                 -3.15015700   -1.76250500   -1.22615100
 H                 -1.63941700   -1.43178100    2.10869100
 H                 -3.15088900   -1.76207400    1.22502300
 H                 -1.86111900   -2.98336100    1.27313700

