%chk=B2PLYPD3DHB.chk
# opt freq B2PLYP/6-31+g(d,p) empiricaldispersion=gd3

[No Title]

0 1
 C                  0.23361000    1.27445500    0.00001200
 C                  0.46780300   -0.12076000    0.00000500
 C                 -0.63122100   -0.99704300    0.00001000
 C                 -1.93804500   -0.52003400    0.00000600
 C                 -2.16608000    0.85946200    0.00000600
 C                 -1.08726200    1.74070100    0.00001600
 O                 -2.95012900   -1.44965700   -0.00001700
 C                  1.84874700   -0.67341200   -0.00001600
 O                  1.85842900   -2.04078000    0.00012700
 O                  2.88321700   -0.03800600   -0.00020100
 O                  1.28519900    2.13941300    0.00002600
 H                 -0.46528600   -2.06660700    0.00001200
 H                 -3.18073500    1.25079400   -0.00000300
 H                 -1.27178600    2.81237600    0.00002300
 H                 -3.80968500   -1.00981900    0.00013800
 H                  2.79342500   -2.30235300    0.00005400
 H                  0.95502900    3.04762500    0.00005100

