%chk=b3lypD3DHB.chk
# opt freq b3lyp/6-31+g(d,p) EmpiricalDispersion=GD3  

[No Title]

0 1
 C                  0.23388200    1.27356800    0.00003400
 C                  0.46769700   -0.12018800    0.00006700
 C                 -0.62903300   -0.99746000    0.00005400
 C                 -1.93509500   -0.52061500   -0.00000100
 C                 -2.16328900    0.85798000   -0.00003900
 C                 -1.08570600    1.73975800   -0.00001000
 O                 -2.94929700   -1.44704600   -0.00005000
 C                  1.84563000   -0.67274600    0.00010500
 O                  1.85397300   -2.03926500    0.00008000
 O                  2.88129100   -0.03958700   -0.00026400
 O                  1.28494100    2.13813700    0.00006400
 H                 -0.45794100   -2.06579000    0.00008800
 H                 -3.17773800    1.24908500   -0.00009400
 H                 -1.27084600    2.81105000   -0.00003200
 H                 -3.80570300   -1.00100000    0.00017500
 H                  2.78981600   -2.29800800   -0.00010400
 H                  0.95063200    3.04497900    0.00006300

