%chk=camb3lypD3SA.chk
# opt freq cam-b3lyp/6-31+g(d,p) empiricaldispersion=gd3

[No Title]

0 1
 C                 -2.38817000   -0.20679700    0.00003500
 C                 -1.91019500    1.11233300    0.00001000
 C                 -0.53303300    1.33741200   -0.00000400
 C                  0.38069900    0.26901900   -0.00002200
 C                 -0.10405900   -1.05126500   -0.00002800
 C                 -1.47319400   -1.27464200    0.00001200
 O                 -3.71822300   -0.43931900    0.00007800
 O                 -2.86106100    2.07845900    0.00001900
 C                 -2.43658900    3.42878900   -0.00004100
 O                 -2.08453800   -2.49822400   -0.00000800
 C                 -1.26954700   -3.65833000   -0.00005500
 C                  1.80027700    0.58453400   -0.00002200
 C                  2.84409000   -0.27058200    0.00002200
 C                  4.21547900    0.24749300    0.00001400
 O                  5.12984500   -0.75782200    0.00005600
 O                  4.55217600    1.41826400   -0.00003900
 H                 -0.14816000    2.35101600    0.00002600
 H                  0.58694600   -1.88514300   -0.00010400
 H                 -3.84305800   -1.40037200    0.00001000
 H                 -3.34929500    4.02576100   -0.00009700
 H                 -1.84907100    3.66499300    0.89627800
 H                 -1.84902400    3.66489400   -0.89635400
 H                 -0.63974900   -3.69766100   -0.89686800
 H                 -0.63968000   -3.69768500    0.89670600
 H                 -1.95453200   -4.50679200   -0.00004900
 H                  2.05293100    1.64471200   -0.00005400
 H                  2.73125200   -1.34984300    0.00007700
 H                  6.00131100   -0.33253300    0.00004100

