%chk=pbeD3SAYang.chk
# opt freq pbepbe/6-31+g(d,p) empiricaldispersion=gd3

[No Title]

1 1
 C                  2.39977300    0.19740900   -0.00093000
 C                  1.92441500   -1.13829300    0.00673000
 C                  0.55612700   -1.34974300    0.01083000
 C                 -0.35861200   -0.26016200    0.00797200
 C                  0.13160000    1.07467900   -0.00253100
 C                  1.49108000    1.29180700   -0.00527800
 O                  3.70375900    0.41310200   -0.00485600
 O                  2.87874000   -2.07850600    0.00901700
 C                  2.48492300   -3.44701300    0.01728400
 O                  2.12824000    2.48354600   -0.01383200
 C                  1.35420200    3.68244500   -0.01883700
 C                 -1.73643600   -0.56582500    0.01189200
 C                 -2.80391200    0.32655100    0.01727000
 C                 -4.11838100   -0.11078200   -0.00086300
 O                 -5.08311800    0.78649200    0.10787200
 O                 -4.40989500   -1.39557800   -0.13569200
 H                  0.16350500   -2.36021000    0.01665000
 H                 -0.55359600    1.91277400   -0.00815700
 H                  3.86539500    1.37290700   -0.01066700
 H                  3.41280900   -4.01727400    0.01827900
 H                  1.90922300   -3.68397700    0.91944000
 H                  1.90517300   -3.69373500   -0.87964600
 H                  2.07426000    4.49940400   -0.02479100
 H                  0.73121000    3.73472800   -0.91810700
 H                  0.73488000    3.74453800    0.88234500
 H                 -1.98951100   -1.62459100    0.00955100
 H                 -2.67213700    1.40124000    0.03745300
 H                 -5.96260900    0.46538100   -0.14042400
 H                 -5.30910200   -1.63006000    0.13677400

