%chk=ccpvTZSAYang.chk
# opt freq m062x/cc-pvtz

[No Title]

1 1
 C                  2.39747100    0.20295100    0.00017900
 C                  1.92720300   -1.13119800    0.00010600
 C                  0.56017900   -1.35005100   -0.00004600
 C                 -0.34927800   -0.26070900   -0.00008000
 C                  0.13127300    1.07457000   -0.00000900
 C                  1.49069900    1.29546100    0.00011100
 O                  3.70271400    0.41265500    0.00029600
 O                  2.88536900   -2.06962900    0.00019200
 C                  2.46518400   -3.42804800   -0.00034000
 O                  2.11733300    2.49310800    0.00019800
 C                  1.30282800    3.66177200   -0.00050300
 C                 -1.72952800   -0.56393300   -0.00011400
 C                 -2.78673300    0.33467700    0.00006600
 C                 -4.10076700   -0.11745200    0.00010000
 O                 -5.06732200    0.77455100    0.00021200
 O                 -4.37476600   -1.40630300    0.00000200
 H                  0.16696800   -2.36347700   -0.00012900
 H                 -0.55815300    1.91300000   -0.00006500
 H                  3.87466000    1.36809400    0.00027700
 H                  3.38066500   -4.02101900   -0.00043600
 H                  1.87830300   -3.65131800    0.90134400
 H                  1.87852100   -3.65065700   -0.90233300
 H                  1.99183200    4.50746000   -0.00075500
 H                  0.67830800    3.68858100   -0.90307800
 H                  0.67797500    3.68942100    0.90182000
 H                 -1.98512800   -1.62583700   -0.00021100
 H                 -2.66021200    1.41247200    0.00030500
 H                 -5.96252300    0.40666100   -0.00013600
 H                 -5.31901300   -1.61666900   -0.00062800

