%chk=ccpvTZSA.chk
# opt freq m062x/cc-pvtz

[No Title]

0 1
 C                 -2.38603600   -0.22123700   -0.00001000
 C                 -1.92196300    1.09908700    0.00018100
 C                 -0.54637900    1.34143400   -0.00006400
 C                  0.36832200    0.28049400   -0.00024100
 C                 -0.09677600   -1.04268500    0.00001300
 C                 -1.46509900   -1.28004300    0.00003300
 O                 -3.71740800   -0.45724200   -0.00051600
 O                 -2.88340200    2.05478700    0.00033500
 C                 -2.44844500    3.40110400    0.00006800
 O                 -2.05741800   -2.51179200    0.00022900
 C                 -1.19968800   -3.63923100    0.00007400
 C                  1.79532600    0.60293400   -0.00019300
 C                  2.82537300   -0.25877800    0.00023500
 C                  4.20499100    0.26325900    0.00005500
 O                  5.11719000   -0.73926100   -0.00013100
 O                  4.53285900    1.42754000    0.00002200
 H                 -0.16777800    2.35997000   -0.00011200
 H                  0.60460800   -1.87099400   -0.00010000
 H                 -3.84532300   -1.41536400   -0.00060500
 H                 -3.35594400    4.00851400    0.00009700
 H                 -1.85523600    3.62380400    0.89866400
 H                 -1.85541300    3.62348800   -0.89872200
 H                 -0.56835400   -3.64564100   -0.89896700
 H                 -0.56815200   -3.64593300    0.89908800
 H                 -1.85080700   -4.51586000    0.00028500
 H                  2.05116300    1.66553000   -0.00055300
 H                  2.71043600   -1.34031700    0.00069800
 H                  5.98847300   -0.31748900   -0.00017600

