%chk=b3lypDMANyang.chk
# opt freq b3lyp/6-31+g(d,p)em=gd3bj

[No Title]

1 1
 C                 -2.13445200   -1.00300500    0.61181000
 C                 -2.06793200   -2.33503500    0.71308600
 C                 -0.92268300   -2.93363100    0.36748500
 C                  0.16829100   -2.20606300    0.06559900
 C                  0.17530900   -0.85760600    0.19222500
 C                 -1.03973900   -0.27220300    0.32777600
 C                  1.26172300   -2.86254700   -0.35290700
 C                  2.35621500   -2.16648800   -0.66890700
 C                  2.38230400   -0.84793100   -0.43679700
 C                  1.34027800   -0.15872300    0.08497600
 N                 -1.28412700    0.98538500   -0.36234600
 N                  1.51908900    1.07371700    0.40814400
 C                 -1.56927500    0.75312500   -1.83017100
 C                 -2.31933800    1.89237500    0.26910600
 C                  0.68187500    1.76234200    1.43314300
 C                  2.78407700    1.77379000    0.04768000
 H                 -3.13635300   -0.54970900    0.67067900
 H                 -2.97223900   -2.93276200    0.91612400
 H                 -0.91330600   -4.03604100    0.31265000
 H                  1.27629800   -3.95864100   -0.47776900
 H                  3.25191200   -2.69129700   -1.04350100
 H                  3.36971500   -0.40314000   -0.63463600
 H                 -0.38595600    1.51811000   -0.35243000
 H                 -1.60559300    1.72799500   -2.36663500
 H                 -0.76008600    0.14744000   -2.29729500
 H                 -2.54026700    0.22863000   -1.97869200
 H                 -2.18186100    2.92852800   -0.11478600
 H                 -2.21549100    1.92463400    1.37643500
 H                 -3.35796100    1.58279900    0.01723600
 H                 -0.00326800    1.09895700    2.00074400
 H                  1.35635200    2.16521800    2.22313200
 H                  0.16287500    2.64874700    1.00700700
 H                  3.00129100    1.71599600   -1.04315600
 H                  2.68095300    2.86428700    0.24845400
 H                  3.64137100    1.42274500    0.66653500

