%chk=ccpvTZFA.chk
# opt freq m062x/cc-pvtz

[No Title]

0 1
 C                  1.46107100   -2.00984700   -0.00037400
 C                  2.49207800   -1.07753000   -0.00025200
 C                  2.19145200    0.29698300   -0.00007600
 C                  0.86930900    0.71710000   -0.00003000
 C                 -0.17798500   -0.22310900   -0.00014000
 C                  0.13583800   -1.58640800   -0.00031600
 O                  3.77923200   -1.49476000   -0.00030400
 C                 -1.55770300    0.27745700   -0.00006000
 C                 -2.68268100   -0.45392800    0.00012200
 O                  3.29056700    1.10701900    0.00003300
 C                  3.06316000    2.50523200    0.00036700
 C                 -4.07207500    0.07206600    0.00035300
 O                 -5.02717100   -0.66035600    0.00179400
 O                 -4.26160300    1.41435200   -0.00097400
 H                  1.71812100   -3.06704600   -0.00051000
 H                  0.63157900    1.77888000    0.00011000
 H                 -0.65537500   -2.33278200   -0.00041700
 H                  4.35093500   -0.71493000   -0.00017400
 H                 -1.62003900    1.37066500   -0.00002400
 H                 -2.65752400   -1.54174100    0.00036300
 H                  4.04985000    2.97354800    0.00050400
 H                  2.50915700    2.80810000   -0.89908300
 H                  2.50911300    2.80766500    0.89993500
 H                 -3.41879600    1.87950700   -0.00266500

